RT is False
Default write of storage_offers_DA.csv just to have a file (but constraint should be inactive)
Reading model...
...model read.
creating competitive generators file...
...competitive generators recorded.
Loading data...
.. day-ahead data read.
Compiling instance...
...instance created.
Creating Offer Mitigation (model will solve as dispatch if TRUE)...
NOTE: storage offers will not be mitigated
...storage offer mitigation file created
Converting model to MPEC...
...converted
NOTE: initial MIP solve with only storage competitive to get feasible solution
Solving...

Welcome to IBM(R) ILOG(R) CPLEX(R) Interactive Optimizer 12.9.0.0
  with Simplex, Mixed Integer & Barrier Optimizers
5725-A06 5725-A29 5724-Y48 5724-Y49 5724-Y54 5724-Y55 5655-Y21
Copyright IBM Corp. 1988, 2019.  All Rights Reserved.

Type 'help' for a list of available commands.
Type 'help' followed by a command name for more
information on commands.

CPLEX> Logfile 'cplex.log' closed.
Logfile 'C:\Users\Luke\Desktop\test919\logs\tmp0jjxzyil.cplex.log' open.
CPLEX> New value for parallel optimization mode: -1
CPLEX> New value for mixed integer optimality gap tolerance: 0.01
CPLEX> New value for integrality tolerance: 1e-09
CPLEX> New value for feasibility tolerance: 0.01
CPLEX> New value for deterministic time limit in ticks: 75000
CPLEX> Problem 'C:\Users\Luke\Desktop\test919\logs\tmpbbg50bgc.pyomo.lp' read.
Read time = 0.20 sec. (14.73 ticks)
CPLEX> Problem name         : C:\Users\Luke\Desktop\test919\logs\tmpbbg50bgc.pyomo.lp
Objective sense      : Maximize
Variables            :   53805  [Nneg: 1,  Box: 22000,  Free: 4464,
                                 Binary: 27340]
Objective nonzeros   :    9122
Linear constraints   :  123205  [Less: 41346,  Greater: 59096,  Equal: 22763]
  Nonzeros           :  291846
  RHS nonzeros       :   67584

Variables            : Min LB: -5000.000        Max UB: 1000000.       
Objective nonzeros   : Min   : 0.1000000        Max   : 2500.000       
Linear constraints   :
  Nonzeros           : Min   : 0.1000000        Max   : 1000000.       
  RHS nonzeros       : Min   : 0.1000000        Max   : 1000000.       
CPLEX> CPXPARAM_Parallel                                -1
CPXPARAM_Simplex_Tolerances_Feasibility          0.01
CPXPARAM_DetTimeLimit                            75000
CPXPARAM_MIP_Tolerances_MIPGap                   0.01
CPXPARAM_MIP_Tolerances_Integrality              1.0000000000000001e-09
Tried aggregator 3 times.
MIP Presolve eliminated 88131 rows and 18528 columns.
MIP Presolve added 3475 rows and 0 columns.
MIP Presolve modified 25020 coefficients.
Aggregator did 13023 substitutions.
Reduced MIP has 25526 rows, 21771 columns, and 72615 nonzeros.
Reduced MIP has 8621 binaries, 0 generals, 0 SOSs, and 0 indicators.
Presolve time = 0.23 sec. (174.20 ticks)
Probing fixed 403 vars, tightened 2973 bounds.
Probing time = 1.52 sec. (901.38 ticks)
Tried aggregator 2 times.
MIP Presolve eliminated 909 rows and 810 columns.
MIP Presolve modified 2306 coefficients.
Aggregator did 34 substitutions.
Reduced MIP has 24583 rows, 20927 columns, and 69885 nonzeros.
Reduced MIP has 8216 binaries, 0 generals, 0 SOSs, and 0 indicators.
Presolve time = 0.11 sec. (73.54 ticks)
Probing time = 0.05 sec. (16.34 ticks)
Clique table members: 6231.
MIP emphasis: balance optimality and feasibility.
MIP search method: dynamic search.
Parallel mode: opportunistic, using up to 24 threads.
Root relaxation solution time = 0.47 sec. (547.04 ticks)

        Nodes                                         Cuts/
   Node  Left     Objective  IInf  Best Integer    Best Bound    ItCnt     Gap

      0     0      775.9388   629                    775.9388     7132         
*     0+    0                            0.0000      775.9388              --- 
      0     1        cutoff              0.0000      775.9388     7134     --- 
Elapsed time = 5.52 sec. (3547.09 ticks, tree = 0.02 MB, solutions = 2)
*     3     2      integral     0      775.9388      775.9388     7132    0.00%

Root node processing (before b&c):
  Real time             =    5.05 sec. (3533.55 ticks)
Parallel b&c, 24 threads:
  Real time             =    0.53 sec. (163.79 ticks)
  Sync time (average)   =    0.09 sec.
  Wait time (average)   =    0.00 sec.
                          ------------
Total (root+branch&cut) =    5.58 sec. (3697.34 ticks)

Solution pool: 2 solutions saved.

MIP - Integer optimal solution:  Objective =  7.7593879312e+02
Solution time =    5.59 sec.  Iterations = 7135  Nodes = 5
Deterministic time = 3697.49 ticks  (660.97 ticks/sec)

CPLEX> Incumbent solution written to file 'C:\Users\Luke\Desktop\test919\logs\tmp9sz9l_1t.cplex.sol'.
CPLEX> NOTE: no warmstart specified for MIP iteration, default behavior is true
NOTE: resolving with all competitive generators using storage-only solution to warmstart
Solving...

Welcome to IBM(R) ILOG(R) CPLEX(R) Interactive Optimizer 12.9.0.0
  with Simplex, Mixed Integer & Barrier Optimizers
5725-A06 5725-A29 5724-Y48 5724-Y49 5724-Y54 5724-Y55 5655-Y21
Copyright IBM Corp. 1988, 2019.  All Rights Reserved.

Type 'help' for a list of available commands.
Type 'help' followed by a command name for more
information on commands.

CPLEX> Logfile 'cplex.log' closed.
Logfile 'C:\Users\Luke\Desktop\test919\logs\tmp9o6s6eii.cplex.log' open.
CPLEX> New value for parallel optimization mode: -1
CPLEX> New value for mixed integer optimality gap tolerance: 0.01
CPLEX> New value for integrality tolerance: 1e-09
CPLEX> New value for feasibility tolerance: 0.01
CPLEX> New value for deterministic time limit in ticks: 75000
CPLEX> Problem 'C:\Users\Luke\Desktop\test919\logs\tmp_kqougyc.pyomo.lp' read.
Read time = 0.20 sec. (14.75 ticks)
CPLEX> MIP start file 'C:\Users\Luke\Desktop\test919\logs\tmpyk64k1lc.cplex.mst' read.
CPLEX> Problem name         : C:\Users\Luke\Desktop\test919\logs\tmp_kqougyc.pyomo.lp
Objective sense      : Maximize
Variables            :   54525  [Nneg: 1,  Box: 22720,  Free: 4464,
                                 Binary: 27340]
Objective nonzeros   :    9842
Linear constraints   :  123205  [Less: 41346,  Greater: 59096,  Equal: 22763]
  Nonzeros           :  291846
  RHS nonzeros       :   67584

Variables            : Min LB: -5000.000        Max UB: 1000000.       
Objective nonzeros   : Min   : 0.1000000        Max   : 2500.000       
Linear constraints   :
  Nonzeros           : Min   : 0.1000000        Max   : 1000000.       
  RHS nonzeros       : Min   : 0.1000000        Max   : 1000000.       
CPLEX> CPXPARAM_Parallel                                -1
CPXPARAM_Simplex_Tolerances_Feasibility          0.01
CPXPARAM_DetTimeLimit                            75000
CPXPARAM_MIP_Tolerances_MIPGap                   0.01
CPXPARAM_MIP_Tolerances_Integrality              1.0000000000000001e-09
Warning:  No solution found from 1 MIP starts.
Retaining values of one MIP start for possible repair.
Tried aggregator 3 times.
MIP Presolve eliminated 88131 rows and 19248 columns.
MIP Presolve added 3475 rows and 0 columns.
MIP Presolve modified 25020 coefficients.
Aggregator did 13023 substitutions.
Reduced MIP has 25526 rows, 21771 columns, and 72615 nonzeros.
Reduced MIP has 8621 binaries, 0 generals, 0 SOSs, and 0 indicators.
Presolve time = 0.22 sec. (174.56 ticks)
Probing fixed 403 vars, tightened 2973 bounds.
Probing time = 1.53 sec. (901.38 ticks)
Tried aggregator 2 times.
MIP Presolve eliminated 909 rows and 810 columns.
MIP Presolve modified 2306 coefficients.
Aggregator did 34 substitutions.
Reduced MIP has 24583 rows, 20927 columns, and 69885 nonzeros.
Reduced MIP has 8216 binaries, 0 generals, 0 SOSs, and 0 indicators.
Presolve time = 0.11 sec. (73.54 ticks)
Probing time = 0.03 sec. (16.34 ticks)
Clique table members: 6231.
MIP emphasis: balance optimality and feasibility.
MIP search method: dynamic search.
Parallel mode: opportunistic, using up to 24 threads.
Root relaxation solution time = 0.44 sec. (547.04 ticks)

        Nodes                                         Cuts/
   Node  Left     Objective  IInf  Best Integer    Best Bound    ItCnt     Gap

      0     0      775.9388   629                    775.9388     7132         
*     0+    0                            0.0000      775.9388              --- 
Repair heuristic found nothing.
      0     1        cutoff              0.0000      775.9388     7134     --- 
Elapsed time = 5.78 sec. (3713.38 ticks, tree = 0.02 MB, solutions = 2)
*     3     2      integral     0      775.9388      775.9388     7132    0.00%

Root node processing (before b&c):
  Real time             =    5.34 sec. (3700.01 ticks)
Parallel b&c, 24 threads:
  Real time             =    0.52 sec. (153.78 ticks)
  Sync time (average)   =    0.09 sec.
  Wait time (average)   =    0.00 sec.
                          ------------
Total (root+branch&cut) =    5.86 sec. (3853.79 ticks)

Solution pool: 2 solutions saved.

MIP - Integer optimal solution:  Objective =  7.7593879312e+02
Solution time =    5.86 sec.  Iterations = 7135  Nodes = 5
Deterministic time = 3853.95 ticks  (657.78 ticks/sec)

CPLEX> Incumbent solution written to file 'C:\Users\Luke\Desktop\test919\logs\tmpsxns_i6c.cplex.sol'.
CPLEX> Exporting results... 
